NAME mip_RS
ROWS
 N  OBJ
 G  R0      
 L  R1      
 G  R2      
 L  R3      
 G  R4      
 L  R5      
 G  R6      
 L  R7      
 E  R8      
 E  R9      
 E  R10     
 E  R11     
 G  R12     
 G  R13     
 G  R14     
 G  R15     
 G  R16     
 G  R17     
 G  R18     
 G  R19     
 G  R20     
 G  R21     
 G  R22     
 G  R23     
 G  R24     
 G  R25     
 G  R26     
 G  R27     
 G  R28     
 G  R29     
 G  R30     
 G  R31     
 G  R32     
 G  R33     
 G  R34     
 G  R35     
 G  R36     
 G  R37     
 G  R38     
 G  R39     
 G  R40     
 G  R41     
 G  R42     
 G  R43     
 G  R44     
 G  R45     
 G  R46     
 G  R47     
 G  R48     
 G  R49     
 G  R50     
 G  R51     
 G  R52     
 G  R53     
 G  R54     
 G  R55     
 G  R56     
 G  R57     
 G  R58     
 G  R59     
 G  R60     
 G  R61     
 G  R62     
 G  R63     
 G  R64     
 G  R65     
 G  R66     
 G  R67     
 G  R68     
 G  R69     
 G  R70     
 G  R71     
 G  R72     
 G  R73     
 G  R74     
 G  R75     
 G  R76     
 G  R77     
 G  R78     
 G  R79     
 G  R80     
 G  R81     
 G  R82     
 G  R83     
 G  R84     
 G  R85     
 G  R86     
 G  R87     
 G  R88     
 G  R89     
 G  R90     
 G  R91     
 G  R92     
 G  R93     
 G  R94     
 G  R95     
 G  R96     
 G  R97     
 G  R98     
 G  R99     
 G  R100    
 G  R101    
 G  R102    
 G  R103    
 G  R104    
 G  R105    
 G  R106    
 G  R107    
 G  R108    
 G  R109    
 G  R110    
 G  R111    
 G  R112    
 G  R113    
 G  R114    
 G  R115    
 G  R116    
 G  R117    
 G  R118    
 G  R119    
 G  R120    
 G  R121    
 G  R122    
 G  R123    
 G  R124    
 G  R125    
 G  R126    
 G  R127    
 G  R128    
 G  R129    
 G  R130    
 G  R131    
 G  R132    
 G  R133    
 G  R134    
 G  R135    
 G  R136    
 G  R137    
 G  R138    
 G  R139    
 G  R140    
 G  R141    
 G  R142    
 G  R143    
 G  R144    
 G  R145    
COLUMNS
    MARKER    'MARKER'                 'INTORG'
    C0        OBJ       100
    C0        R1        -10000
    C0        R12       -1
    C0        R13       -1
    C0        R15       -1
    C0        R18       -1
    C0        R22       1
    C0        R23       1
    C0        R24       1
    C0        R25       1
    C1        R8        1
    C1        R12       1
    C1        R22       1
    C1        R26       -4.4878886533391149e-01
    C1        R27       -4.4878886533391149e-01
    C1        R29       -1.0332691991823078e+00
    C1        R30       -1.0332691991823078e+00
    C1        R32       -1.5416918708253959e+00
    C1        R33       -1.5416918708253959e+00
    C1        R35       -1.8778632208017154e+00
    C1        R36       -1.8778632208017154e+00
    C1        R38       -1.9947114020071635e+00
    C1        R39       -1.9947114020071635e+00
    C1        R41       -1.8778632208017154e+00
    C1        R42       -1.8778632208017154e+00
    C1        R44       -1.5416918708253959e+00
    C1        R45       -1.5416918708253959e+00
    C1        R47       -1.0332691991823078e+00
    C1        R48       -1.0332691991823078e+00
    C1        R50       -4.4878886533391144e-01
    C1        R51       -4.4878886533391144e-01
    C2        R9        1
    C2        R13       1
    C2        R23       1
    C2        R56       -1.0035224104316249e+00
    C2        R57       -1.0035224104316249e+00
    C2        R59       -2.3104601684284107e+00
    C2        R60       -2.3104601684284107e+00
    C2        R62       -3.4473278235244105e+00
    C2        R63       -3.4473278235244105e+00
    C2        R65       -4.1990298141593332e+00
    C2        R66       -4.1990298141593332e+00
    C2        R68       -4.4603102903819281e+00
    C2        R69       -4.4603102903819281e+00
    C2        R71       -4.1990298141593332e+00
    C2        R72       -4.1990298141593332e+00
    C2        R74       -3.4473278235244105e+00
    C2        R75       -3.4473278235244105e+00
    C2        R77       -2.3104601684284107e+00
    C2        R78       -2.3104601684284107e+00
    C2        R80       -1.0035224104316249e+00
    C2        R81       -1.0035224104316249e+00
    C3        R10       1
    C3        R15       1
    C3        R24       1
    C3        R86       -1.6792141730785257e+00
    C3        R87       -1.6792141730785257e+00
    C3        R89       -3.8661393316464774e+00
    C3        R90       -3.8661393316464774e+00
    C3        R92       -5.7684827766031805e+00
    C3        R93       -5.7684827766031805e+00
    C3        R95       -7.0263207914638439e+00
    C3        R96       -7.0263207914638439e+00
    C3        R98       -7.4635266518023089e+00
    C3        R99       -7.4635266518023089e+00
    C3        R101      -7.0263207914638439e+00
    C3        R102      -7.0263207914638439e+00
    C3        R104      -5.7684827766031805e+00
    C3        R105      -5.7684827766031805e+00
    C3        R107      -3.8661393316464774e+00
    C3        R108      -3.8661393316464774e+00
    C3        R110      -1.6792141730785255e+00
    C3        R111      -1.6792141730785255e+00
    C4        R11       1
    C4        R18       1
    C4        R25       1
    C4        R116      -1.9040498999917508e+00
    C4        R117      -1.9040498999917508e+00
    C4        R119      -4.3837899451980205e+00
    C4        R120      -4.3837899451980205e+00
    C4        R122      -6.5408446581648745e+00
    C4        R123      -6.5408446581648745e+00
    C4        R125      -7.9670989054182240e+00
    C4        R126      -7.9670989054182240e+00
    C4        R128      -8.4628437532163456e+00
    C4        R129      -8.4628437532163456e+00
    C4        R131      -7.9670989054182240e+00
    C4        R132      -7.9670989054182240e+00
    C4        R134      -6.5408446581648745e+00
    C4        R135      -6.5408446581648745e+00
    C4        R137      -4.3837899451980205e+00
    C4        R138      -4.3837899451980205e+00
    C4        R140      -1.9040498999917503e+00
    C4        R141      -1.9040498999917503e+00
    MARKER    'MARKER'                 'INTEND'
    C5        R0        1
    C5        R1        1
    C5        R2        -1
    C5        R3        -1
    C5        R26       -4.2061084207634769e-02
    C5        R27       9.5793891579236523e-01
    C5        R28       1
    C5        R29       -1.2569673373847967e-01
    C5        R30       8.7430326626152033e-01
    C5        R31       1
    C5        R32       -2.3644007969906788e-01
    C5        R33       7.6355992030093212e-01
    C5        R34       1
    C5        R35       -3.6412222522898308e-01
    C5        R36       6.3587777477101692e-01
    C5        R37       1
    C5        R38       -0.5
    C5        R39       0.5
    C5        R40       1
    C5        R41       -6.3587777477101692e-01
    C5        R42       3.6412222522898308e-01
    C5        R43       1
    C5        R44       -7.6355992030093212e-01
    C5        R45       2.3644007969906788e-01
    C5        R46       1
    C5        R47       -8.7430326626152033e-01
    C5        R48       1.2569673373847967e-01
    C5        R49       1
    C5        R50       -9.5793891579236523e-01
    C5        R51       4.2061084207634769e-02
    C5        R52       1
    C5        R53       -1
    C5        R55       1
    C6        OBJ       1
    C6        R26       1
    C6        R29       1
    C6        R32       1
    C6        R35       1
    C6        R38       1
    C6        R41       1
    C6        R44       1
    C6        R47       1
    C6        R50       1
    C6        R53       1
    C7        OBJ       10
    C7        R27       1
    C7        R28       1
    C7        R30       1
    C7        R31       1
    C7        R33       1
    C7        R34       1
    C7        R36       1
    C7        R37       1
    C7        R39       1
    C7        R40       1
    C7        R42       1
    C7        R43       1
    C7        R45       1
    C7        R46       1
    C7        R48       1
    C7        R49       1
    C7        R51       1
    C7        R52       1
    C7        R54       1
    C7        R55       1
    MARKER    'MARKER'                 'INTORG'
    C8        OBJ       100
    C8        R3        -10000
    C8        R13       1
    C8        R14       -1
    C8        R15       1
    C8        R16       -1
    C8        R18       1
    C8        R19       -1
    C9        OBJ       0
    C10       R9        1
    C10       R14       1
    C10       R56       -8.9757773066782298e-01
    C10       R57       -8.9757773066782298e-01
    C10       R59       -2.0665383983646155e+00
    C10       R60       -2.0665383983646155e+00
    C10       R62       -3.0833837416507919e+00
    C10       R63       -3.0833837416507919e+00
    C10       R65       -3.7557264416034308e+00
    C10       R66       -3.7557264416034308e+00
    C10       R68       -3.9894228040143269e+00
    C10       R69       -3.9894228040143269e+00
    C10       R71       -3.7557264416034308e+00
    C10       R72       -3.7557264416034308e+00
    C10       R74       -3.0833837416507919e+00
    C10       R75       -3.0833837416507919e+00
    C10       R77       -2.0665383983646155e+00
    C10       R78       -2.0665383983646155e+00
    C10       R80       -8.9757773066782287e-01
    C10       R81       -8.9757773066782287e-01
    C11       R10       1
    C11       R16       1
    C11       R86       -1.6181312658187210e+00
    C11       R87       -1.6181312658187210e+00
    C11       R89       -3.7255050790094248e+00
    C11       R90       -3.7255050790094248e+00
    C11       R92       -5.5586490912269699e+00
    C11       R93       -5.5586490912269699e+00
    C11       R95       -6.7707321309085398e+00
    C11       R96       -6.7707321309085398e+00
    C11       R98       -7.1920342396894910e+00
    C11       R99       -7.1920342396894910e+00
    C11       R101      -6.7707321309085398e+00
    C11       R102      -6.7707321309085398e+00
    C11       R104      -5.5586490912269699e+00
    C11       R105      -5.5586490912269699e+00
    C11       R107      -3.7255050790094248e+00
    C11       R108      -3.7255050790094248e+00
    C11       R110      -1.6181312658187208e+00
    C11       R111      -1.6181312658187208e+00
    C12       R11       1
    C12       R19       1
    C12       R116      -1.8504038953728172e+00
    C12       R117      -1.8504038953728172e+00
    C12       R119      -4.2602780479260289e+00
    C12       R120      -4.2602780479260289e+00
    C12       R122      -6.3565584255692062e+00
    C12       R123      -6.3565584255692062e+00
    C12       R125      -7.7426284098280522e+00
    C12       R126      -7.7426284098280522e+00
    C12       R128      -8.2244058030994278e+00
    C12       R129      -8.2244058030994278e+00
    C12       R131      -7.7426284098280522e+00
    C12       R132      -7.7426284098280522e+00
    C12       R134      -6.3565584255692062e+00
    C12       R135      -6.3565584255692062e+00
    C12       R137      -4.2602780479260289e+00
    C12       R138      -4.2602780479260289e+00
    C12       R140      -1.8504038953728170e+00
    C12       R141      -1.8504038953728170e+00
    MARKER    'MARKER'                 'INTEND'
    C13       R2        1
    C13       R3        1
    C13       R4        -1
    C13       R5        -1
    C13       R56       -4.2061084207634769e-02
    C13       R57       9.5793891579236523e-01
    C13       R58       1
    C13       R59       -1.2569673373847967e-01
    C13       R60       8.7430326626152033e-01
    C13       R61       1
    C13       R62       -2.3644007969906788e-01
    C13       R63       7.6355992030093212e-01
    C13       R64       1
    C13       R65       -3.6412222522898308e-01
    C13       R66       6.3587777477101692e-01
    C13       R67       1
    C13       R68       -0.5
    C13       R69       0.5
    C13       R70       1
    C13       R71       -6.3587777477101692e-01
    C13       R72       3.6412222522898308e-01
    C13       R73       1
    C13       R74       -7.6355992030093212e-01
    C13       R75       2.3644007969906788e-01
    C13       R76       1
    C13       R77       -8.7430326626152033e-01
    C13       R78       1.2569673373847967e-01
    C13       R79       1
    C13       R80       -9.5793891579236523e-01
    C13       R81       4.2061084207634769e-02
    C13       R82       1
    C13       R83       -1
    C13       R85       1
    C14       OBJ       1
    C14       R56       1
    C14       R59       1
    C14       R62       1
    C14       R65       1
    C14       R68       1
    C14       R71       1
    C14       R74       1
    C14       R77       1
    C14       R80       1
    C14       R83       1
    C15       OBJ       10
    C15       R57       1
    C15       R58       1
    C15       R60       1
    C15       R61       1
    C15       R63       1
    C15       R64       1
    C15       R66       1
    C15       R67       1
    C15       R69       1
    C15       R70       1
    C15       R72       1
    C15       R73       1
    C15       R75       1
    C15       R76       1
    C15       R78       1
    C15       R79       1
    C15       R81       1
    C15       R82       1
    C15       R84       1
    C15       R85       1
    MARKER    'MARKER'                 'INTORG'
    C16       OBJ       100
    C16       R5        -10000
    C16       R15       1
    C16       R16       1
    C16       R17       -1
    C16       R18       1
    C16       R19       1
    C16       R20       -1
    C17       OBJ       0
    C18       OBJ       0
    C19       R10       1
    C19       R17       1
    C19       R86       -1.3463665960017346e+00
    C19       R87       -1.3463665960017346e+00
    C19       R89       -3.0998075975469237e+00
    C19       R90       -3.0998075975469237e+00
    C19       R92       -4.6250756124761878e+00
    C19       R93       -4.6250756124761878e+00
    C19       R95       -5.6335896624051465e+00
    C19       R96       -5.6335896624051465e+00
    C19       R98       -5.9841342060214906e+00
    C19       R99       -5.9841342060214906e+00
    C19       R101      -5.6335896624051465e+00
    C19       R102      -5.6335896624051465e+00
    C19       R104      -4.6250756124761878e+00
    C19       R105      -4.6250756124761878e+00
    C19       R107      -3.0998075975469237e+00
    C19       R108      -3.0998075975469237e+00
    C19       R110      -1.3463665960017344e+00
    C19       R111      -1.3463665960017344e+00
    C20       R11       1
    C20       R20       1
    C20       R116      -1.6181312658187210e+00
    C20       R117      -1.6181312658187210e+00
    C20       R119      -3.7255050790094248e+00
    C20       R120      -3.7255050790094248e+00
    C20       R122      -5.5586490912269699e+00
    C20       R123      -5.5586490912269699e+00
    C20       R125      -6.7707321309085398e+00
    C20       R126      -6.7707321309085398e+00
    C20       R128      -7.1920342396894910e+00
    C20       R129      -7.1920342396894910e+00
    C20       R131      -6.7707321309085398e+00
    C20       R132      -6.7707321309085398e+00
    C20       R134      -5.5586490912269699e+00
    C20       R135      -5.5586490912269699e+00
    C20       R137      -3.7255050790094248e+00
    C20       R138      -3.7255050790094248e+00
    C20       R140      -1.6181312658187208e+00
    C20       R141      -1.6181312658187208e+00
    MARKER    'MARKER'                 'INTEND'
    C21       R4        1
    C21       R5        1
    C21       R6        -1
    C21       R7        -1
    C21       R86       -4.2061084207634769e-02
    C21       R87       9.5793891579236523e-01
    C21       R88       1
    C21       R89       -1.2569673373847967e-01
    C21       R90       8.7430326626152033e-01
    C21       R91       1
    C21       R92       -2.3644007969906788e-01
    C21       R93       7.6355992030093212e-01
    C21       R94       1
    C21       R95       -3.6412222522898308e-01
    C21       R96       6.3587777477101692e-01
    C21       R97       1
    C21       R98       -0.5
    C21       R99       0.5
    C21       R100      1
    C21       R101      -6.3587777477101692e-01
    C21       R102      3.6412222522898308e-01
    C21       R103      1
    C21       R104      -7.6355992030093212e-01
    C21       R105      2.3644007969906788e-01
    C21       R106      1
    C21       R107      -8.7430326626152033e-01
    C21       R108      1.2569673373847967e-01
    C21       R109      1
    C21       R110      -9.5793891579236523e-01
    C21       R111      4.2061084207634769e-02
    C21       R112      1
    C21       R113      -1
    C21       R115      1
    C22       OBJ       1
    C22       R86       1
    C22       R89       1
    C22       R92       1
    C22       R95       1
    C22       R98       1
    C22       R101      1
    C22       R104      1
    C22       R107      1
    C22       R110      1
    C22       R113      1
    C23       OBJ       10
    C23       R87       1
    C23       R88       1
    C23       R90       1
    C23       R91       1
    C23       R93       1
    C23       R94       1
    C23       R96       1
    C23       R97       1
    C23       R99       1
    C23       R100      1
    C23       R102      1
    C23       R103      1
    C23       R105      1
    C23       R106      1
    C23       R108      1
    C23       R109      1
    C23       R111      1
    C23       R112      1
    C23       R114      1
    C23       R115      1
    MARKER    'MARKER'                 'INTORG'
    C24       OBJ       100
    C24       R7        -10000
    C24       R18       1
    C24       R19       1
    C24       R20       1
    C24       R21       -1
    C25       OBJ       0
    C26       OBJ       0
    C27       OBJ       0
    C28       R11       1
    C28       R21       1
    C28       R116      -8.9757773066782298e-01
    C28       R117      -8.9757773066782298e-01
    C28       R119      -2.0665383983646155e+00
    C28       R120      -2.0665383983646155e+00
    C28       R122      -3.0833837416507919e+00
    C28       R123      -3.0833837416507919e+00
    C28       R125      -3.7557264416034308e+00
    C28       R126      -3.7557264416034308e+00
    C28       R128      -3.9894228040143269e+00
    C28       R129      -3.9894228040143269e+00
    C28       R131      -3.7557264416034308e+00
    C28       R132      -3.7557264416034308e+00
    C28       R134      -3.0833837416507919e+00
    C28       R135      -3.0833837416507919e+00
    C28       R137      -2.0665383983646155e+00
    C28       R138      -2.0665383983646155e+00
    C28       R140      -8.9757773066782287e-01
    C28       R141      -8.9757773066782287e-01
    MARKER    'MARKER'                 'INTEND'
    C29       R6        1
    C29       R7        1
    C29       R116      -4.2061084207634769e-02
    C29       R117      9.5793891579236523e-01
    C29       R118      1
    C29       R119      -1.2569673373847967e-01
    C29       R120      8.7430326626152033e-01
    C29       R121      1
    C29       R122      -2.3644007969906788e-01
    C29       R123      7.6355992030093212e-01
    C29       R124      1
    C29       R125      -3.6412222522898308e-01
    C29       R126      6.3587777477101692e-01
    C29       R127      1
    C29       R128      -0.5
    C29       R129      0.5
    C29       R130      1
    C29       R131      -6.3587777477101692e-01
    C29       R132      3.6412222522898308e-01
    C29       R133      1
    C29       R134      -7.6355992030093212e-01
    C29       R135      2.3644007969906788e-01
    C29       R136      1
    C29       R137      -8.7430326626152033e-01
    C29       R138      1.2569673373847967e-01
    C29       R139      1
    C29       R140      -9.5793891579236523e-01
    C29       R141      4.2061084207634769e-02
    C29       R142      1
    C29       R143      -1
    C29       R145      1
    C30       OBJ       1
    C30       R116      1
    C30       R119      1
    C30       R122      1
    C30       R125      1
    C30       R128      1
    C30       R131      1
    C30       R134      1
    C30       R137      1
    C30       R140      1
    C30       R143      1
    C31       OBJ       10
    C31       R117      1
    C31       R118      1
    C31       R120      1
    C31       R121      1
    C31       R123      1
    C31       R124      1
    C31       R126      1
    C31       R127      1
    C31       R129      1
    C31       R130      1
    C31       R132      1
    C31       R133      1
    C31       R135      1
    C31       R136      1
    C31       R138      1
    C31       R139      1
    C31       R141      1
    C31       R142      1
    C31       R144      1
    C31       R145      1
RHS
    RHS1      R0        -20
    RHS1      R1        -20
    RHS1      R2        -40
    RHS1      R3        -40
    RHS1      R4        -60
    RHS1      R5        -60
    RHS1      R6        -40
    RHS1      R7        -40
    RHS1      R8        1
    RHS1      R9        1
    RHS1      R10       1
    RHS1      R11       1
    RHS1      R22       1
    RHS1      R23       1
    RHS1      R24       1
    RHS1      R25       1
BOUNDS
 BV BND1      C0      
 BV BND1      C1      
 BV BND1      C2      
 BV BND1      C3      
 BV BND1      C4      
 FR BND1      C5      
 BV BND1      C8      
 BV BND1      C9      
 BV BND1      C10     
 BV BND1      C11     
 BV BND1      C12     
 FR BND1      C13     
 BV BND1      C16     
 BV BND1      C17     
 BV BND1      C18     
 BV BND1      C19     
 BV BND1      C20     
 FR BND1      C21     
 BV BND1      C24     
 BV BND1      C25     
 BV BND1      C26     
 BV BND1      C27     
 BV BND1      C28     
 FR BND1      C29     
ENDATA
